words_hard_train/4664.qaiger
aag 82 16 0 1 66
2
4
8
18
26
36
46
60
74
82
100
106
124
128
140
144
164
6 2 4
10 7 9
12 3 9
14 13 4
16 11 15
20 17 19
22 16 18
24 21 23
28 24 26
30 7 2
32 28 30
34 33 23
38 15 37
40 12 37
42 41 4
44 39 43
48 45 47
50 44 46
52 49 51
54 34 53
56 35 52
58 55 57
62 59 61
64 31 27
66 64 25
68 67 33
70 62 69
72 57 51
76 43 75
78 77 4
80 79 77
84 81 83
86 80 82
88 85 87
90 72 89
92 71 91
94 73 88
96 92 95
98 95 87
102 79 101
104 103 5
108 105 107
110 104 106
112 109 111
114 98 113
116 99 112
118 115 117
120 97 119
122 117 111
126 124 5
130 127 129
132 126 128
134 131 133
136 122 135
138 121 137
142 140 5
146 142 144
148 143 145
150 147 149
152 151 133
154 123 134
156 152 155
158 150 132
160 157 159
162 161 155
164 138 162
i0 2 y1[0]
i1 2 y1[7]
i2 2 y1[1]
i3 1 x2[2]
i4 1 x2[1]
i5 2 y1[2]
i6 1 x2[3]
i7 1 x2[0]
i8 2 y1[3]
i9 1 x2[4]
i10 2 y1[4]
i11 1 x2[5]
i12 2 y1[5]
i13 1 x2[6]
i14 2 y1[6]
i15 1 x2[7]
o0 bv[0]
c
simplified
  >=
    add
      1 x2
      add
        abs
          2 y1
        2 y1
    -175
