words_hard_train/4664.qaiger.qdimacs
p cnf 82 199
a 64 72 9 41 13 53 23 30 0
e 1 2 3 4 5 6 7 8 10 11 12 14 15 16 17 18 19 20 21 22 24 25 26 27 28 29 31 32 33 34 35 36 37 38 39 40 42 43 44 45 46 47 48 49 50 51 52 54 55 56 57 58 59 60 61 62 63 65 66 67 68 69 70 71 73 74 75 76 77 78 79 80 81 82 0
-1 -2 3 0
1 -3 0
2 -3 0
3 4 5 0
-3 -5 0
-4 -5 0
1 4 6 0
-1 -6 0
-4 -6 0
6 -2 7 0
-6 -7 0
2 -7 0
5 7 8 0
-5 -8 0
-7 -8 0
8 9 10 0
-8 -10 0
-9 -10 0
-8 -9 11 0
8 -11 0
9 -11 0
10 11 12 0
-10 -12 0
-11 -12 0
-12 -13 14 0
12 -14 0
13 -14 0
3 -1 15 0
-3 -15 0
1 -15 0
-14 -15 16 0
14 -16 0
15 -16 0
16 11 17 0
-16 -17 0
-11 -17 0
7 18 19 0
-7 -19 0
-18 -19 0
-6 18 20 0
6 -20 0
-18 -20 0
20 -2 21 0
-20 -21 0
2 -21 0
19 21 22 0
-19 -22 0
-21 -22 0
22 23 24 0
-22 -24 0
-23 -24 0
-22 -23 25 0
22 -25 0
23 -25 0
24 25 26 0
-24 -26 0
-25 -26 0
-17 26 27 0
17 -27 0
-26 -27 0
17 -26 28 0
-17 -28 0
26 -28 0
27 28 29 0
-27 -29 0
-28 -29 0
29 30 31 0
-29 -31 0
-30 -31 0
15 13 32 0
-15 -32 0
-13 -32 0
-32 12 33 0
32 -33 0
-12 -33 0
33 16 34 0
-33 -34 0
-16 -34 0
-31 34 35 0
31 -35 0
-34 -35 0
28 25 36 0
-28 -36 0
-25 -36 0
21 37 38 0
-21 -38 0
-37 -38 0
38 -2 39 0
-38 -39 0
2 -39 0
39 38 40 0
-39 -40 0
-38 -40 0
40 41 42 0
-40 -42 0
-41 -42 0
-40 -41 43 0
40 -43 0
41 -43 0
42 43 44 0
-42 -44 0
-43 -44 0
-36 44 45 0
36 -45 0
-44 -45 0
35 45 46 0
-35 -46 0
-45 -46 0
36 -44 47 0
-36 -47 0
44 -47 0
-46 47 48 0
46 -48 0
-47 -48 0
47 43 49 0
-47 -49 0
-43 -49 0
39 50 51 0
-39 -51 0
-50 -51 0
51 2 52 0
-51 -52 0
-2 -52 0
52 53 54 0
-52 -54 0
-53 -54 0
-52 -53 55 0
52 -55 0
53 -55 0
54 55 56 0
-54 -56 0
-55 -56 0
-49 56 57 0
49 -57 0
-56 -57 0
49 -56 58 0
-49 -58 0
56 -58 0
57 58 59 0
-57 -59 0
-58 -59 0
48 59 60 0
-48 -60 0
-59 -60 0
58 55 61 0
-58 -61 0
-55 -61 0
-62 2 63 0
62 -63 0
-2 -63 0
63 64 65 0
-63 -65 0
-64 -65 0
-63 -64 66 0
63 -66 0
64 -66 0
65 66 67 0
-65 -67 0
-66 -67 0
-61 67 68 0
61 -68 0
-67 -68 0
60 68 69 0
-60 -69 0
-68 -69 0
-70 2 71 0
70 -71 0
-2 -71 0
-71 -72 73 0
71 -73 0
72 -73 0
71 72 74 0
-71 -74 0
-72 -74 0
73 74 75 0
-73 -75 0
-74 -75 0
75 66 76 0
-75 -76 0
-66 -76 0
61 -67 77 0
-61 -77 0
67 -77 0
-76 77 78 0
76 -78 0
-77 -78 0
-75 -66 79 0
75 -79 0
66 -79 0
78 79 80 0
-78 -80 0
-79 -80 0
80 77 81 0
-80 -81 0
-77 -81 0
-69 -81 82 0
69 -82 0
81 -82 0
82 0
